WARNING: for repeatability, setting FPU to use double precision
============================[ Problem Statistics ]=============================
|                                                                             |
|  Number of variables:            50                                         |
|  Number of clauses:             218                                         |
|  Parse time:                   0.00 s                                       |
|                                                                             |
============================[ Search Statistics ]==============================
| Conflicts |          ORIGINAL         |          LEARNT          | Progress |
|           |    Vars  Clauses Literals |    Limit  Clauses Lit/Cl |          |
===============================================================================
===============================================================================
restarts              : 1
conflicts             : 66             (210191 /sec)
decisions             : 78             (0.00 % random) (248408 /sec)
propagations          : 1016           (3235669 /sec)
conflict literals     : 256            (16.07 % deleted)
Memory used           : 20.00 MB
CPU time              : 0.000314 s

UNSATISFIABLE
